DIMENSION: 10
EDGE_WEIGHT_TYPE: EXPLICIT
EDGE_WEIGHT_FORMAT: FULL_MATRIX
EDGE_WEIGHT_SECTION:
32767 74 52 79 22 61 32767 21 8 32767 
74 32767 25 46 33 17 27 32767 83 32767 
52 25 32767 32767 83 14 93 25 63 88 
79 46 32767 32767 58 32767 57 13 84 24 
22 33 83 58 32767 50 32767 91 30 46 
61 17 14 32767 50 32767 6 67 62 32767 
32767 27 93 57 32767 6 32767 24 34 34 
21 32767 25 13 91 67 24 32767 22 32767 
8 83 63 84 30 62 34 22 32767 86 
32767 32767 88 24 46 32767 34 32767 86 32767 
EOF